1309455
0,34,4,89,2,82,24,62,19,43,78,23,108,63,9,65,76,8,36,25,40,37,71,74,56,85,26,68,69,30,48,10,90,88,96,104,98,70,46,38,13,7,67,39,27,35,11,64,87,6,17,49,75,72,18,61,86,92,95,105,59,41,107,32,77,54,12,20,47,79,16,52,99,101,53,57,103,21,14,22,3,66,91,73,55,102,29,5,60,84,42,94,31,50,83,58,1,80,45,93,106,15,28,51,33,44,81,100,97,0